NAME: lin318
TYPE: TSP
COMMENT: 318-city problem (Lin/Kernighan)
DIMENSION: 30
EDGE_WEIGHT_TYPE : EUC_2D
NODE_COORD_SECTION
1 63 555
2 94 153
3 142 370
4 173 1276
5 205 1213
6 213 155
7 244 201
8 276 630
9 283 732
10 362 120
11 394 200
12 449 370
13 480 1276
14 512 1213
15 528 157
16 583 630
17 591 732
18 638 654
19 638 496
20 638 314
21 638 142
22 669 142
23 677 315
24 677 496
25 677 654
26 709 654
27 709 496
28 709 315
29 701 142
30 764 220
EOF
